1 3 100 194869.35
1 3 200 203015.80
1 3 300 175051.81
2 3 100 266689.13
2 3 200 247066.57
2 3 300 253433.25
3 3 100 250813.68
3 3 200 321074.91
3 3 300 312334.27
4 3 100 296958.08
4 3 200 307462.38
4 3 300 317620.14
5 3 100 285377.28
5 3 200 295188.72
5 3 300 296864.21
